45 439
3 6 8 9 11 14 15 17 20 21 22 24 26 27 28 30 32 34
2 6 7 8 9 14 17 18 19 20 21 22 26 27 29 30 33 36 37 38 39 41 42 44
1 3 6 7 8 12 13 14 17 19 20 22 23 24 30 31 32 36 37 38 39 40 43 44
0 2 4 5 6 7 9 10 12 13 17 18 19 20 22 25 26 30 32 33 34 37 38 39 40 43 44
3 6 7 9 12 14 15 16 18 21 22 24 28 34 38 39 40 42 44
3 8 9 10 11 12 14 19 20 30 34 36 38 42 43 44
0 1 2 3 4 10 14 19 20 22 24 30 32 35 38 39
1 2 3 4 12 13 15 18 19 20 21 22 30 31 32 35 37 39 43
0 1 2 5 10 11 14 15 17 20 21 27 28 29 30 31 38 39 40
0 1 3 4 5 13 14 15 17 19 20 21 24 25 31 32 37 40 41 43
3 5 6 8 12 16 18 20 21 22 23 24 26 30 31 33 34 37 38 41
0 5 8 15 16 17 25 26 27 31 32 33 34 38 42
2 3 4 5 7 10 15 21 22 24 25 29 30 31 32 36 39 40 41 42
2 3 7 9 14 15 17 19 20 22 23 24 26 29 30 32 33 34 35 37 38 40 44
0 1 2 4 5 6 8 9 13 16 17 22 26 27 29 30 31 32 34 36 39
0 4 7 8 9 11 12 13 16 17 18 20 23 24 25 27 32 33 37 38 39 40
4 10 11 14 15 20 22 24 26 27 28 29 35 36 37 44
0 1 2 3 8 9 11 13 14 15 21 22 25 26 29 30 34 37 40
1 3 4 7 10 15 20 23 24 28 30 31 33 34 36 37 41 42 43 44
1 2 3 5 6 7 9 13 20 25 28 29 30 32 33 36 39 42 43 44
0 1 2 3 5 6 7 8 9 10 13 15 16 18 19 21 24 30 31 34 35 36 37 41
0 1 4 7 8 9 10 12 17 20 27 29 30 32 34 35 36 39 41 44
0 1 2 3 4 6 7 10 12 13 14 16 17 26 27 32 35 42 44
2 10 13 15 18 25 29 31 34 35 39 40 43
0 2 4 6 9 10 12 13 15 16 18 20 26 29 30 41 42 43
3 9 11 12 15 17 19 23 29 30 31 32 33 35 36 41 42 43 44
0 1 3 10 11 13 14 16 17 22 24 27 29 30 35 38 40 43
0 1 8 11 14 15 16 21 22 26 29 31 35 36 37 38 40 42 43
0 4 8 16 18 19 30 33 37 40
1 8 12 13 14 16 17 19 21 23 24 25 26 27 33 35 37 39 40
0 1 2 3 5 6 7 8 10 12 13 14 17 18 19 20 21 24 25 26 28 31 34 35 36 37 38 39 40 42
2 7 8 9 10 11 12 14 18 20 23 25 27 30 34 35 37 38 40 43
0 2 3 6 7 9 11 12 13 14 15 19 21 22 25 34 35 37 40 41 43
1 3 10 11 13 15 18 19 25 28 29 34 44
0 3 4 5 10 11 13 14 17 18 20 21 23 30 31 32 33 35 36 39 42
6 7 13 16 20 21 22 23 25 26 27 29 30 31 32 34 38 39 42 43
1 2 5 12 14 16 18 19 20 21 25 27 30 34 37 38 42
1 2 3 7 9 10 13 15 16 17 18 20 27 28 29 30 31 32 36 39 41 44
1 2 3 4 5 6 8 10 11 13 15 26 27 30 31 35 36 39 40 41 42 43 44
1 2 3 4 6 7 8 12 14 15 19 21 23 29 30 34 35 37 38 40 41 43
2 3 4 8 9 12 13 15 17 23 26 27 28 29 30 31 32 38 39 43 44
1 9 10 12 18 20 21 24 25 32 37 38 39 43 44
1 4 5 11 12 18 19 22 24 25 27 30 34 35 36 38 44
2 3 5 7 9 18 19 23 24 25 26 27 31 32 35 38 39 40 41 44
1 2 3 4 5 13 16 18 19 21 22 25 33 37 38 40 41 42 43
